(set-logic ALL)
(declare-fun seed0_T_1 () Bool)
(declare-fun seed0_T_2 () Bool)
(declare-fun seed0_T_3 () Bool)
(declare-fun seed0_T_4 () Bool)
(declare-fun seed0_var_0xINPUT_137425 () String)
(assert (and (or (= seed0_T_1 (= "-" seed0_var_0xINPUT_137425)) (not (str.contains (str.++ seed0_var_0xINPUT_137425 "MasFPXyh") (str.++ seed0_var_0xINPUT_137425 "5eCjBdGKaZJT1i")))) (or (= seed0_T_2 (not seed0_T_1)) (or (str.suffixof (str.++ seed0_var_0xINPUT_137425 "1o6SXKcrY32ZTvgNQ") (str.++ seed0_var_0xINPUT_137425 "YqN63ARz5fls")) (str.contains (str.++ seed0_var_0xINPUT_137425 "ZRJui1z") (str.++ seed0_var_0xINPUT_137425 "Y12KA7wRH")))) (or seed0_T_2 (=> (str.suffixof (str.++ seed0_var_0xINPUT_137425 "d8qxrYWskmojMeIXiA") (str.++ seed0_var_0xINPUT_137425 "jZs7n")) (str.prefixof (str.++ seed0_var_0xINPUT_137425 "") (str.++ seed0_var_0xINPUT_137425 "RZBIOf2U")))) (or (= seed0_T_3 (= "" seed0_var_0xINPUT_137425)) (or (str.contains (str.++ seed0_var_0xINPUT_137425 "3XMePWhC0yzjf") (str.++ seed0_var_0xINPUT_137425 "8")) (str.suffixof (str.++ seed0_var_0xINPUT_137425 "XQE4Mhxcp7Uz") (str.++ seed0_var_0xINPUT_137425 "oIqmJlMsuOR5yj0")))) (or (= seed0_T_4 (not seed0_T_3)) (not (str.prefixof (str.++ seed0_var_0xINPUT_137425 "LEtRXWKUOofj1qzsP2My") (str.++ seed0_var_0xINPUT_137425 "8xSMD9l7QfOqe")))) (or seed0_T_4 (=> (str.suffixof (str.++ seed0_var_0xINPUT_137425 "OKZUI3YJaAVEh") (str.++ seed0_var_0xINPUT_137425 "w3GPxCVU1kR")) (str.suffixof (str.++ seed0_var_0xINPUT_137425 "8SAYr7mvUK6Bql425C") (str.++ seed0_var_0xINPUT_137425 "Zs2qlmGhv1QgHL"))))))
(check-sat)
(exit)